50
    26    65    20    57    52    11    93    69     3    70    14    56    54    26    30    36    51    54     7    66   100    21    21    44    76    82    68    10    20    85    59    44    37    66    18    67    98    55    88    38    40    70    26    60    65    21     4    75    42     7
     9     2     2     6     5     5     9     9     6    10     9     3    10     1     8     3     3     7    10     3    10     7     1     2     6     5     1     9     8     4     9     7     8     4     4     9     3     1     2     1     6     8     3     4     1     7     2     7     2     5
     0   738   302     0     0     0     0   723     0   641   126   592     0     0     0     0     0   775     0   800     0   558     0   792     0     0     0   167     0     0   629     0     0     0   391   918   395     0     0     0   253   751     0    12   194     0   931    15   455   649
